unsat
( _c0
  _c1632
  _c1633
  _c1634
  _c1635
  _c1636
  _c1637
  _c1638
  _c1639
  _c1640
  _c1642
  _c1643
  _c1644
  _c1645
  _c1646
  _c1647
  _c1648
  _c1649
  _c1650
  _c1652
  _c1653
  _c1654
  _c1655
  _c1656
  _c1657
  _c1658
  _c1659
  _c1660
  _c1662
  _c1663
  _c1664
  _c1666
  _c1667
  _c1668
  _c1669
  _c1670
  _c1672
  _c1673
  _c1674
  _c1675
  _c1676
  _c1677
  _c1678
  _c1679
  _c1680
  _c1683
  _c1685
  _c1686
  _c1687
  _c1688
  _c1689
  _c1690
  _c1692
  _c1694
  _c1695
  _c1696
  _c1697
  _c1698
  _c1699
  _c1700
  _c1702
  _c1703
  _c1705
  _c1706
  _c1707
  _c1708
  _c1710
  _c1712
  _c1713
  _c1714
  _c1715
  _c1716
  _c1717
  _c1718
  _c1719
  _c1720
  _c2459
  _c2460
  _c2461
  _c2462
  _c2468
  _c2469
  _c2470
  _c2477
  _c2478
  _c2486
  _c2500
  _c2501
  _c2503
  _c2508
  _c2509
  _c2511
  _c2516
  _c2517
  _c2519
  _c2524
  _c2527
  _c2541
  _c2542
  _c2543
  _c2544
  _c2545
  _c2547
  _c2549
  _c2554
  _c2556
  _c2563
  _c2565
  _c2567
  _c2572
  _c2573
  _c2574
  _c2613
  _c2614
  _c2615
  _c2616
  _c2617
  _c2619
  _c2628
  _c2631
  _c2632
  _c2633
  _c2634
  _c2636
  _c2637
  _c2639
  _c2641
  _c2642
  _c2643
  _c2645
  _c2646
  _c2648
  _c2649
  _c2651
  _c2652
  _c2653
  _c2654
  _c2655
  _c2657
  _c2658
  _c2659
  _c2664
  _c2666
  _c2667
  _c2668
  _c2669
  _c2673
  _c2675
  _c2676
  _c2677
  _c2678
  _c2682
  _c2684
  _c2685
  _c2686
  _c2687
  _c2692
  _c2697
  _c2699
  _c2700
  _c2703
  _c2704
  _c2705
  _c2706
  _c2708
  _c2718
  _c2723
  _c2725
  _c2727
  _c2732
  _c2733
  _c2734
  _c2736
  _c2745
  _c2754
  _c2777
  _c2779
  _c2780
  _c2782
  _c2784
  _c2785
  _c2786
  _c2788
  _c2790
  _c2795
  _c2797
  _c2807
  _c2812
  _c2813
  _c2814
  _c2852
  _c2857
  _c2858
  _c2859
  _c2860
  _c2862
  _c2863
  _c2865
  _c2866
  _c2867
  _c2868
  _c2870
  _c2875
  _c2876
  _c2877
  _c2879
  _c2884
  _c2885
  _c2886
  _c2896
  _c2902
  _c2905
  _c2911
  _c2914
  _c2929
  _c2940
  _c2942
  _c2943
  _c2944
  _c2950
  _c2968
  _c2974
  _c3020
  _c3022
  _c3023
  _c3024
  _c3025
  _c3030
  _c3048
  _c3054
  _c3100
  _c3102
  _c3103
  _c3104
  _c3105
  _c3110
  _c3128
  _c3180
  _c3182
  _c3183
  _c3184
  _c3185
  _c3214
  _c3332
  _c3333
  _c3334
  _c3335
  _c3336
  _c3337
  _c3338
  _c3339
  _c3340
  _c3344
  _c3345
  _c3346
  _c3347
  _c3348
  _c3349
  _c3350
  _c3351
  _c3352
  _c3353
  _c3354
  _c3355
  _c3356
  _c3357
  _c3358
  _c3359
  _c3360
  _c3361
  _c3362
  _c3363
  _c3364
  _c3365
  _c3366
  _c3367
  _c3368
  _c3369
  _c3370
  _c3371
  _c3372
  _c3373
  _c3374
  _c3375
  _c3376
  _c3377
  _c3378
  _c832
  _c834
  _c835
  _c836 )
